db/inputs/3528236221438626766284281176145668118.smt2
(set-logic QF_FP)
(declare-const x0 (_ FloatingPoint 11 53))
(declare-const x1 (_ FloatingPoint 11 53))
(declare-const x2 (_ FloatingPoint 11 53))
(declare-const x3 (_ FloatingPoint 11 53))
(declare-const x4 (_ FloatingPoint 11 53))
(declare-const x5 (_ FloatingPoint 11 53))
(declare-const x6 (_ FloatingPoint 11 53))
(declare-const x7 (_ FloatingPoint 11 53))
(declare-const x8 (_ FloatingPoint 11 53))
(declare-const x9 (_ FloatingPoint 11 53))
(declare-const x10 (_ FloatingPoint 11 53))
(declare-const x11 (_ FloatingPoint 11 53))
(declare-const x12 (_ FloatingPoint 11 53))
(declare-const x13 (_ FloatingPoint 11 53))
(declare-const x14 (_ FloatingPoint 11 53))
(declare-const x15 (_ FloatingPoint 11 53))
(declare-const x16 (_ FloatingPoint 11 53))
(declare-const x17 (_ FloatingPoint 11 53))
(declare-const x18 (_ FloatingPoint 11 53))
(declare-const x19 (_ FloatingPoint 11 53))
(declare-const x20 (_ FloatingPoint 11 53))
(declare-const x21 (_ FloatingPoint 11 53))
(declare-const x22 (_ FloatingPoint 11 53))
(declare-const x23 (_ FloatingPoint 11 53))
(declare-const x24 (_ FloatingPoint 11 53))
(assert (fp.lt (fp.neg (fp.sub RNE x18 x20)) (fp.add RNE (fp.neg x6) (fp.neg x20))))
(assert (fp.lt (fp.div RNE (fp.neg x6) (fp.neg x23)) (fp.mul RNE (fp.add RNE x22 x16) (fp.sub RNE x21 x24))))
(assert (fp.eq (fp.sub RNE (fp.neg x20) (fp.add RNE x1 x15)) (fp.sub RNE (fp.add RNE x14 x24) (fp.add RNE x7 x22))))
(assert (fp.lt (fp.add RNE (fp.neg x19) (fp.neg x21)) (fp.mul RNE (fp.mul RNE x23 x7) (fp.sub RNE x16 x4))))
(assert (fp.leq (fp.div RNE (fp.neg x8) (fp.neg x13)) (fp.div RNE (fp.div RNE x3 x12) (fp.neg x0))))
(assert (fp.geq (fp.neg (fp.neg x7)) (fp.mul RNE (fp.neg x3) (fp.div RNE x17 x14))))
(assert (fp.leq (fp.add RNE (fp.mul RNE x20 x18) (fp.sub RNE x16 x17)) (fp.mul RNE (fp.neg x10) (fp.mul RNE x21 x14))))
(assert (fp.leq (fp.mul RNE (fp.add RNE x15 x15) (fp.mul RNE x6 x13)) (fp.sub RNE (fp.add RNE x14 x14) (fp.mul RNE x1 x17))))
(assert (fp.lt (fp.sub RNE (fp.add RNE x6 x1) (fp.mul RNE x9 x0)) (fp.add RNE (fp.div RNE x22 x8) (fp.div RNE x18 x19))))
(check-sat)
