db/data/3528236221438626766284281176145668118.z3.out
-------------------
2500.130330013
